words_hard_train/5956.qaiger
aag 167 24 0 1 143
2
4
8
16
26
28
56
64
78
98
106
120
140
148
162
182
190
204
224
232
246
288
290
304
334
6 2 4
10 4 8
12 5 9
14 11 13
18 15 17
20 14 16
22 19 21
24 7 23
30 27 29
32 25 31
34 26 28
36 32 35
38 3 5
40 39 7
42 40 26
44 23 28
46 42 45
48 37 47
50 6 22
52 49 51
54 51 21
58 13 56
60 12 57
62 59 61
66 63 65
68 62 64
70 67 69
72 54 71
74 55 70
76 73 75
80 31 78
82 30 79
84 81 83
86 77 85
88 76 84
90 87 89
92 52 90
94 93 89
96 75 69
100 61 98
102 60 99
104 101 103
108 105 107
110 104 106
112 109 111
114 96 113
116 97 112
118 115 117
122 83 120
124 82 121
126 123 125
128 119 127
130 118 126
132 129 131
134 95 132
136 135 131
138 117 111
142 103 140
144 102 141
146 143 145
150 147 149
152 146 148
154 151 153
156 138 155
158 139 154
160 157 159
164 125 162
166 124 163
168 165 167
170 161 169
172 160 168
174 171 173
176 137 174
178 177 173
180 159 153
184 145 182
186 144 183
188 185 187
192 189 191
194 188 190
196 193 195
198 180 197
200 181 196
202 199 201
206 167 204
208 166 205
210 207 209
212 203 211
214 202 210
216 213 215
218 179 216
220 219 215
222 201 195
226 187 224
228 186 225
230 227 229
234 231 233
236 230 232
238 235 237
240 222 239
242 223 238
244 241 243
248 209 246
250 208 247
252 249 251
254 245 253
256 244 252
258 255 257
260 221 259
262 220 258
264 261 263
266 94 133
268 267 135
270 136 175
272 271 177
274 269 273
276 53 91
278 277 93
280 274 279
282 178 217
284 283 219
286 280 285
292 288 290
294 289 291
296 293 295
298 296 229
300 297 228
302 299 301
306 250 305
308 251 304
310 307 309
312 302 310
314 303 311
316 313 315
318 243 237
320 317 318
322 316 319
324 321 323
326 324 257
328 325 256
330 327 329
332 287 330
334 265 332
i0 2 y2[7]
i1 1 x1[0]
i2 1 x1[1]
i3 2 y2[6]
i4 2 y1[0]
i5 2 y1[1]
i6 1 x1[2]
i7 2 y2[5]
i8 2 y1[2]
i9 1 x1[3]
i10 2 y2[4]
i11 2 y1[3]
i12 1 x1[4]
i13 2 y2[3]
i14 2 y1[4]
i15 1 x1[5]
i16 2 y2[2]
i17 2 y1[5]
i18 1 x1[6]
i19 2 y2[1]
i20 2 y1[6]
i21 2 y2[0]
i22 1 x1[7]
i23 2 y1[7]
o0 bv[0]
c
simplified
  >
    subtract
      subtract
        reverse
          2 y2
        1 x1
      2 y1
    -189
