words_hard_train/5956.qaiger.qdimacs
p cnf 167 430
a 2 4 70 112 49 145 91 28 0
e 1 3 5 6 7 8 9 10 11 12 13 14 15 16 17 18 19 20 21 22 23 24 25 26 27 29 30 31 32 33 34 35 36 37 38 39 40 41 42 43 44 45 46 47 48 50 51 52 53 54 55 56 57 58 59 60 61 62 63 64 65 66 67 68 69 71 72 73 74 75 76 77 78 79 80 81 82 83 84 85 86 87 88 89 90 92 93 94 95 96 97 98 99 100 101 102 103 104 105 106 107 108 109 110 111 113 114 115 116 117 118 119 120 121 122 123 124 125 126 127 128 129 130 131 132 133 134 135 136 137 138 139 140 141 142 143 144 146 147 148 149 150 151 152 153 154 155 156 157 158 159 160 161 162 163 164 165 166 167 0
-1 -2 3 0
1 -3 0
2 -3 0
-2 -4 5 0
2 -5 0
4 -5 0
2 4 6 0
-2 -6 0
-4 -6 0
5 6 7 0
-5 -7 0
-6 -7 0
7 8 9 0
-7 -9 0
-8 -9 0
-7 -8 10 0
7 -10 0
8 -10 0
9 10 11 0
-9 -11 0
-10 -11 0
3 11 12 0
-3 -12 0
-11 -12 0
13 14 15 0
-13 -15 0
-14 -15 0
12 15 16 0
-12 -16 0
-15 -16 0
-13 -14 17 0
13 -17 0
14 -17 0
-16 17 18 0
16 -18 0
-17 -18 0
1 2 19 0
-1 -19 0
-2 -19 0
19 3 20 0
-19 -20 0
-3 -20 0
-20 -13 21 0
20 -21 0
13 -21 0
11 -14 22 0
-11 -22 0
14 -22 0
-21 22 23 0
21 -23 0
-22 -23 0
18 23 24 0
-18 -24 0
-23 -24 0
-3 -11 25 0
3 -25 0
11 -25 0
24 25 26 0
-24 -26 0
-25 -26 0
25 10 27 0
-25 -27 0
-10 -27 0
6 -28 29 0
-6 -29 0
28 -29 0
-6 28 30 0
6 -30 0
-28 -30 0
29 30 31 0
-29 -31 0
-30 -31 0
31 32 33 0
-31 -33 0
-32 -33 0
-31 -32 34 0
31 -34 0
32 -34 0
33 34 35 0
-33 -35 0
-34 -35 0
-27 35 36 0
27 -36 0
-35 -36 0
27 -35 37 0
-27 -37 0
35 -37 0
36 37 38 0
-36 -38 0
-37 -38 0
15 -39 40 0
-15 -40 0
39 -40 0
-15 39 41 0
15 -41 0
-39 -41 0
40 41 42 0
-40 -42 0
-41 -42 0
38 42 43 0
-38 -43 0
-42 -43 0
-38 -42 44 0
38 -44 0
42 -44 0
43 44 45 0
-43 -45 0
-44 -45 0
-26 -45 46 0
26 -46 0
45 -46 0
46 44 47 0
-46 -47 0
-44 -47 0
37 34 48 0
-37 -48 0
-34 -48 0
30 -49 50 0
-30 -50 0
49 -50 0
-30 49 51 0
30 -51 0
-49 -51 0
50 51 52 0
-50 -52 0
-51 -52 0
52 53 54 0
-52 -54 0
-53 -54 0
-52 -53 55 0
52 -55 0
53 -55 0
54 55 56 0
-54 -56 0
-55 -56 0
-48 56 57 0
48 -57 0
-56 -57 0
48 -56 58 0
-48 -58 0
56 -58 0
57 58 59 0
-57 -59 0
-58 -59 0
41 -60 61 0
-41 -61 0
60 -61 0
-41 60 62 0
41 -62 0
-60 -62 0
61 62 63 0
-61 -63 0
-62 -63 0
59 63 64 0
-59 -64 0
-63 -64 0
-59 -63 65 0
59 -65 0
63 -65 0
64 65 66 0
-64 -66 0
-65 -66 0
47 -66 67 0
-47 -67 0
66 -67 0
67 65 68 0
-67 -68 0
-65 -68 0
58 55 69 0
-58 -69 0
-55 -69 0
51 -70 71 0
-51 -71 0
70 -71 0
-51 70 72 0
51 -72 0
-70 -72 0
71 72 73 0
-71 -73 0
-72 -73 0
73 74 75 0
-73 -75 0
-74 -75 0
-73 -74 76 0
73 -76 0
74 -76 0
75 76 77 0
-75 -77 0
-76 -77 0
-69 77 78 0
69 -78 0
-77 -78 0
69 -77 79 0
-69 -79 0
77 -79 0
78 79 80 0
-78 -80 0
-79 -80 0
62 -81 82 0
-62 -82 0
81 -82 0
-62 81 83 0
62 -83 0
-81 -83 0
82 83 84 0
-82 -84 0
-83 -84 0
80 84 85 0
-80 -85 0
-84 -85 0
-80 -84 86 0
80 -86 0
84 -86 0
85 86 87 0
-85 -87 0
-86 -87 0
68 -87 88 0
-68 -88 0
87 -88 0
88 86 89 0
-88 -89 0
-86 -89 0
79 76 90 0
-79 -90 0
-76 -90 0
72 -91 92 0
-72 -92 0
91 -92 0
-72 91 93 0
72 -93 0
-91 -93 0
92 93 94 0
-92 -94 0
-93 -94 0
94 95 96 0
-94 -96 0
-95 -96 0
-94 -95 97 0
94 -97 0
95 -97 0
96 97 98 0
-96 -98 0
-97 -98 0
-90 98 99 0
90 -99 0
-98 -99 0
90 -98 100 0
-90 -100 0
98 -100 0
99 100 101 0
-99 -101 0
-100 -101 0
83 -102 103 0
-83 -103 0
102 -103 0
-83 102 104 0
83 -104 0
-102 -104 0
103 104 105 0
-103 -105 0
-104 -105 0
101 105 106 0
-101 -106 0
-105 -106 0
-101 -105 107 0
101 -107 0
105 -107 0
106 107 108 0
-106 -108 0
-107 -108 0
89 -108 109 0
-89 -109 0
108 -109 0
109 107 110 0
-109 -110 0
-107 -110 0
100 97 111 0
-100 -111 0
-97 -111 0
93 -112 113 0
-93 -113 0
112 -113 0
-93 112 114 0
93 -114 0
-112 -114 0
113 114 115 0
-113 -115 0
-114 -115 0
115 116 117 0
-115 -117 0
-116 -117 0
-115 -116 118 0
115 -118 0
116 -118 0
117 118 119 0
-117 -119 0
-118 -119 0
-111 119 120 0
111 -120 0
-119 -120 0
111 -119 121 0
-111 -121 0
119 -121 0
120 121 122 0
-120 -122 0
-121 -122 0
104 -123 124 0
-104 -124 0
123 -124 0
-104 123 125 0
104 -125 0
-123 -125 0
124 125 126 0
-124 -126 0
-125 -126 0
122 126 127 0
-122 -127 0
-126 -127 0
-122 -126 128 0
122 -128 0
126 -128 0
127 128 129 0
-127 -129 0
-128 -129 0
110 129 130 0
-110 -130 0
-129 -130 0
-110 -129 131 0
110 -131 0
129 -131 0
130 131 132 0
-130 -132 0
-131 -132 0
-47 66 133 0
47 -133 0
-66 -133 0
133 67 134 0
-133 -134 0
-67 -134 0
-68 87 135 0
68 -135 0
-87 -135 0
135 88 136 0
-135 -136 0
-88 -136 0
134 136 137 0
-134 -137 0
-136 -137 0
26 45 138 0
-26 -138 0
-45 -138 0
138 46 139 0
-138 -139 0
-46 -139 0
-137 139 140 0
137 -140 0
-139 -140 0
-89 108 141 0
89 -141 0
-108 -141 0
141 109 142 0
-141 -142 0
-109 -142 0
-140 142 143 0
140 -143 0
-142 -143 0
-144 -145 146 0
144 -146 0
145 -146 0
144 145 147 0
-144 -147 0
-145 -147 0
146 147 148 0
-146 -148 0
-147 -148 0
-148 114 149 0
148 -149 0
-114 -149 0
148 -114 150 0
-148 -150 0
114 -150 0
149 150 151 0
-149 -151 0
-150 -151 0
-125 152 153 0
125 -153 0
-152 -153 0
125 -152 154 0
-125 -154 0
152 -154 0
153 154 155 0
-153 -155 0
-154 -155 0
-151 -155 156 0
151 -156 0
155 -156 0
151 155 157 0
-151 -157 0
-155 -157 0
156 157 158 0
-156 -158 0
-157 -158 0
121 118 159 0
-121 -159 0
-118 -159 0
158 -159 160 0
-158 -160 0
159 -160 0
-158 159 161 0
158 -161 0
-159 -161 0
160 161 162 0
-160 -162 0
-161 -162 0
-162 128 163 0
162 -163 0
-128 -163 0
162 -128 164 0
-162 -164 0
128 -164 0
163 164 165 0
-163 -165 0
-164 -165 0
143 -165 166 0
-143 -166 0
165 -166 0
132 -166 167 0
-132 -167 0
166 -167 0
167 0
